0 46
0 148
0 512
0 513
0 745
0 746
0 777
0 787
0 792
0 990
1 90
1 219
1 305
1 306
1 592
1 593
1 695
1 696
2 61
2 165
2 276
2 321
2 330
2 331
2 428
2 610
3 19
3 21
3 99
3 100
3 338
3 403
3 406
3 607
4 82
4 83
4 104
4 129
4 274
4 491
4 879
4 880
5 25
5 39
5 40
5 44
5 71
5 354
5 483
5 890
6 8
6 12
6 18
6 320
6 611
6 697
6 698
7 48
7 132
7 133
7 155
7 189
7 216
7 586
8 18
8 90
8 306
8 307
8 400
8 832
9 38
9 93
9 97
9 320
9 833
9 848
9 849
10 39
10 44
10 64
10 67
10 179
10 266
10 877
11 48
11 85
11 91
11 135
11 298
11 958
12 95
12 198
12 468
12 605
12 606
13 78
13 115
13 213
13 253
13 581
13 582
14 124
14 149
14 150
14 270
14 296
14 297
15 35
15 87
15 251
15 302
15 669
15 799
16 53
16 160
16 458
16 808
16 823
16 950
17 33
17 95
17 163
17 318
17 319
17 671
18 73
18 264
18 320
18 923
19 58
19 59
19 116
19 389
19 699
20 337
20 404
20 700
20 701
20 702
20 855
21 60
21 96
21 481
21 718
21 719
22 34
22 111
22 245
22 471
22 866
22 867
23 24
23 227
23 265
23 272
23 488
23 872
24 28
24 176
24 273
24 741
24 975
25 112
25 113
25 353
25 383
25 910
26 119
26 150
26 392
26 395
26 479
27 363
27 457
27 562
27 563
27 895
28 61
28 203
28 430
28 934
29 171
29 204
29 521
29 527
29 650
30 50
30 215
30 365
30 577
30 662
31 70
31 71
31 181
31 183
31 240
32 87
32 243
32 579
32 669
32 964
33 95
33 110
33 220
33 672
34 63
34 346
34 673
34 904
35 241
35 569
35 692
35 693
36 87
36 88
36 251
36 694
36 918
37 90
37 122
37 219
37 263
37 717
38 97
38 223
38 608
38 718
39 81
39 82
39 84
40 81
40 118
40 260
40 720
41 123
41 196
41 680
41 681
41 727
42 56
42 133
42 155
42 596
42 736
43 102
43 227
43 272
43 486
43 741
44 177
44 274
44 742
45 247
45 282
45 447
45 677
45 987
46 298
46 516
46 752
46 788
47 48
47 75
47 131
47 502
47 806
48 75
48 807
49 160
49 299
49 576
49 808
49 809
50 51
50 54
50 243
50 303
51 72
51 670
51 671
51 812
52 127
52 155
52 307
52 407
52 734
53 357
53 822
53 823
53 993
54 55
54 161
54 314
54 366
55 187
55 314
55 315
55 316
56 500
56 737
56 836
56 837
57 167
57 279
57 514
57 980
57 996
58 198
58 469
58 604
58 847
59 80
59 116
59 698
59 848
60 100
60 101
60 227
60 856
61 170
61 226
61 858
62 134
62 177
62 418
62 750
62 874
63 111
63 178
63 466
63 875
64 112
64 179
64 474
64 876
65 66
65 257
65 345
65 348
65 482
66 258
66 349
66 483
66 922
67 82
67 83
67 200
67 878
68 104
68 190
68 350
68 501
68 880
69 109
69 181
69 182
69 352
69 355
70 71
70 113
70 183
70 188
71 118
71 708
72 375
72 379
72 380
73 93
73 307
73 407
74 135
74 425
74 426
74 931
75 419
75 427
76 247
76 444
76 445
76 446
77 186
77 197
77 234
77 374
78 89
78 244
78 305
79 153
79 394
79 479
79 914
80 116
80 403
80 480
81 199
81 354
82 487
83 129
83 490
84 491
84 492
84 925
85 427
85 513
85 933
86 250
86 392
86 569
86 570
87 88
88 89
88 574
89 580
89 581
90 584
91 217
91 419
91 420
92 187
92 387
92 588
92 589
93 164
93 594
94 158
94 205
94 534
94 597
95 605
96 222
96 485
96 956
97 224
97 408
98 222
98 225
98 271
98 613
99 100
99 254
99 482
100 101
101 175
101 618
102 176
102 277
102 339
103 179
103 180
103 347
103 473
104 201
104 259
105 172
105 232
105 636
105 648
106 107
106 460
106 557
106 659
107 239
107 364
108 160
108 361
108 458
108 841
109 234
109 654
109 663
110 162
110 329
110 672
111 178
111 245
112 382
112 673
113 637
113 976
114 123
114 684
114 768
114 947
115 252
115 575
115 917
116 221
117 254
117 700
117 701
117 703
118 260
118 638
119 713
119 714
119 913
120 270
120 393
120 714
120 715
121 122
121 125
121 214
121 716
122 401
122 717
123 196
123 728
124 125
124 270
124 412
125 189
125 732
126 127
126 216
126 415
126 733
127 216
127 585
128 271
128 609
128 610
128 738
129 273
129 924
130 201
130 354
130 411
130 742
131 132
131 421
131 746
132 710
132 720
133 165
133 308
134 177
134 191
134 749
135 422
135 752
136 171
136 278
136 519
136 520
137 644
137 755
137 756
137 978
138 721
138 722
138 759
138 985
139 142
139 759
139 760
139 939
140 141
140 194
140 725
140 761
141 193
141 268
141 762
142 281
142 285
142 763
143 281
143 507
143 743
143 760
144 195
144 282
144 283
144 726
145 146
145 291
145 730
145 774
146 287
146 497
146 498
147 293
147 687
147 688
147 781
148 295
148 498
148 499
149 731
149 786
149 787
150 478
150 571
151 152
151 212
151 798
151 901
152 242
152 300
152 902
153 214
153 800
153 801
154 715
154 716
154 802
154 803
155 813
156 308
156 504
156 586
156 587
157 518
157 534
157 814
157 959
158 309
158 598
158 815
159 641
159 790
159 819
159 820
160 824
161 303
161 811
161 828
162 317
162 318
162 381
163 319
163 593
163 829
164 408
164 833
164 834
165 837
165 838
166 271
166 330
166 737
166 849
168 844
168 845
168 851
168 852
169 174
169 245
169 328
169 853
170 277
170 747
170 857
171 753
171 862
172 208
172 863
172 864
173 178
173 326
173 341
173 897
174 341
174 342
174 852
175 345
175 484
175 872
176 501
176 873
177 203
178 240
179 180
180 258
180 348
181 886
181 887
182 370
182 652
182 889
183 246
183 355
184 334
184 335
184 368
185 372
185 373
186 898
187 380
188 391
188 911
189 412
190 418
190 928
191 203
191 431
192 268
192 441
192 941
193 441
193 442
194 448
194 675
195 282
195 448
196 946
197 373
197 462
198 388
199 651
199 927
200 266
200 486
201 926
202 275
202 509
202 510
204 434
204 522
205 535
205 536
206 310
206 537
206 541
207 231
207 280
207 542
208 542
208 543
209 514
209 544
209 545
210 477
210 478
210 556
211 235
211 461
211 564
212 241
212 568
213 214
213 575
215 572
215 578
217 503
217 587
218 386
218 590
218 591
219 583
220 388
220 604
221 606
221 909
222 609
223 611
223 920
224 485
224 612
225 276
225 409
226 331
226 614
228 533
228 628
228 968
229 433
229 629
229 630
230 642
230 643
230 966
231 645
231 646
232 432
232 649
233 391
233 651
233 912
234 655
235 299
235 563
236 237
236 324
236 842
237 367
237 982
238 239
238 557
238 660
239 661
240 467
241 242
242 668
243 244
244 670
246 369
246 674
247 676
248 249
248 384
248 690
249 553
249 691
250 302
250 693
251 916
252 574
252 694
253 402
253 695
254 255
255 617
255 704
256 257
256 618
256 704
257 344
258 705
259 706
259 707
260 261
261 475
261 709
262 476
262 711
262 712
263 264
263 413
264 919
265 266
265 719
267 722
267 723
267 940
268 724
269 726
269 727
269 945
272 740
273 416
274 417
275 286
275 287
276 747
277 748
278 543
278 544
279 546
279 753
280 541
280 754
281 438
283 284
283 725
284 285
284 494
285 764
286 743
286 767
287 744
288 289
288 453
288 988
289 685
289 775
290 291
290 294
290 775
291 292
292 731
292 776
293 455
293 780
294 711
294 784
295 555
295 556
296 499
296 791
297 298
297 421
299 794
300 301
300 573
301 668
301 799
302 800
303 365
304 305
304 386
304 812
306 398
308 813
309 310
309 536
310 816
311 603
311 816
311 817
312 313
312 356
313 821
314 375
315 316
315 366
316 317
319 908
321 322
321 838
322 506
322 839
323 821
323 840
324 325
324 842
325 326
325 368
326 843
327 463
327 843
327 844
328 329
328 845
329 846
330 500
331 515
332 333
332 896
332 997
333 334
333 367
334 335
335 850
336 470
336 854
336 855
337 338
337 390
338 699
339 856
339 857
340 619
340 861
340 998
341 465
342 866
342 973
343 615
343 869
343 870
344 870
344 871
345 921
346 347
346 875
347 876
348 871
349 484
349 877
350 881
350 974
351 362
351 882
351 889
352 884
352 885
353 382
353 888
355 663
356 891
357 358
358 359
359 892
360 361
360 893
362 894
363 364
369 639
370 899
371 372
374 900
376 377
376 903
377 378
378 379
383 905
384 906
385 692
385 907
389 390
393 394
395 396
396 397
397 915
398 399
399 400
401 402
404 405
405 406
409 410
410 411
413 414
414 415
416 417
420 807
422 929
423 424
423 930
424 425
426 932
428 429
429 515
430 935
431 936
432 433
434 435
435 436
436 437
437 937
438 439
439 440
440 938
442 942
443 444
443 943
445 944
446 447
449 450
449 547
450 451
451 452
452 453
454 455
454 948
456 457
456 949
459 460
461 951
462 952
463 464
464 953
465 954
466 467
468 955
469 470
471 472
472 473
474 475
476 477
480 481
487 890
488 489
489 490
492 493
493 957
494 495
495 496
496 497
502 503
504 505
505 506
507 508
508 509
510 511
511 512
516 517
517 518
519 960
520 521
522 523
523 524
524 525
525 526
526 621
527 528
528 529
529 530
530 531
531 532
532 533
535 597
537 538
538 539
539 540
540 961
545 546
547 548
548 549
549 550
550 551
551 552
552 962
553 554
554 555
558 559
558 963
559 560
560 561
561 562
564 565
565 566
566 567
567 568
570 571
572 573
576 577
579 580
582 583
584 585
588 965
589 590
591 592
594 595
595 596
598 599
599 600
600 601
601 602
602 603
607 608
612 613
615 616
616 617
619 620
620 967
621 622
622 623
623 624
624 625
625 626
626 627
628 969
629 970
630 971
631 632
631 972
632 633
633 634
634 635
635 636
637 638
639 640
640 977
641 642
643 644
645 979
646 647
647 648
649 650
652 653
653 654
655 656
656 674
657 658
657 981
658 659
661 662
664 665
664 691
665 666
666 667
667 793
675 676
677 678
678 679
679 680
681 682
682 683
683 684
685 686
686 687
688 689
689 690
696 697
702 703
705 706
707 708
709 710
712 713
721 983
723 724
728 729
729 730
732 733
734 735
735 736
738 739
739 740
744 745
748 749
750 751
751 881
754 755
756 757
757 758
758 984
761 986
762 763
764 765
765 766
766 767
768 769
769 770
770 771
771 772
772 773
773 774
776 777
778 779
778 989
779 780
781 782
782 783
783 784
785 786
785 991
788 789
789 790
791 792
793 992
794 795
795 796
796 797
797 798
801 802
803 804
804 805
805 806
809 810
810 811
814 815
817 818
818 819
820 994
824 825
825 826
826 827
827 828
829 830
830 831
831 832
834 835
835 836
839 995
840 841
846 847
850 851
853 854
858 859
859 860
860 861
862 863
864 865
865 999
867 868
868 869
873 874
878 879
882 883
883 884
885 886
887 888
